(set-logic LIA)
(declare-fun coord_x0 () Int)
(declare-fun coord_x1 () Int)
(declare-fun coord_x2 () Int)
(declare-fun coord_x3 () Int)
(declare-fun coord_x4 () Int)
(declare-fun coord_x5 () Int)
(declare-fun coord_x6 () Int)
(declare-fun coord_x7 () Int)
(declare-fun coord_x8 () Int)
(declare-fun coord_x9 () Int)
(declare-fun coord_x10 () Int)
(declare-fun coord_x11 () Int)
(declare-fun coord_y0 () Int)
(declare-fun coord_y1 () Int)
(declare-fun coord_y2 () Int)
(declare-fun coord_y3 () Int)
(declare-fun coord_y4 () Int)
(declare-fun coord_y5 () Int)
(declare-fun coord_y6 () Int)
(declare-fun coord_y7 () Int)
(declare-fun coord_y8 () Int)
(declare-fun coord_y9 () Int)
(declare-fun coord_y10 () Int)
(declare-fun coord_y11 () Int)
(declare-fun rot0 () Bool)
(declare-fun rot1 () Bool)
(declare-fun rot2 () Bool)
(declare-fun rot3 () Bool)
(declare-fun rot4 () Bool)
(declare-fun rot5 () Bool)
(declare-fun rot6 () Bool)
(declare-fun rot7 () Bool)
(declare-fun rot8 () Bool)
(declare-fun rot9 () Bool)
(declare-fun rot10 () Bool)
(declare-fun rot11 () Bool)
(declare-fun w_real0 () Int)
(declare-fun w_real1 () Int)
(declare-fun w_real2 () Int)
(declare-fun w_real3 () Int)
(declare-fun w_real4 () Int)
(declare-fun w_real5 () Int)
(declare-fun w_real6 () Int)
(declare-fun w_real7 () Int)
(declare-fun w_real8 () Int)
(declare-fun w_real9 () Int)
(declare-fun w_real10 () Int)
(declare-fun w_real11 () Int)
(declare-fun h_real0 () Int)
(declare-fun h_real1 () Int)
(declare-fun h_real2 () Int)
(declare-fun h_real3 () Int)
(declare-fun h_real4 () Int)
(declare-fun h_real5 () Int)
(declare-fun h_real6 () Int)
(declare-fun h_real7 () Int)
(declare-fun h_real8 () Int)
(declare-fun h_real9 () Int)
(declare-fun h_real10 () Int)
(declare-fun h_real11 () Int)
(declare-fun l () Int)
(assert (and (>= coord_x0 0) (<= coord_x0 14)))
(assert (and (>= coord_x1 0) (<= coord_x1 14)))
(assert (and (>= coord_x2 0) (<= coord_x2 14)))
(assert (and (>= coord_x3 0) (<= coord_x3 14)))
(assert (and (>= coord_x4 0) (<= coord_x4 14)))
(assert (and (>= coord_x5 0) (<= coord_x5 14)))
(assert (and (>= coord_x6 0) (<= coord_x6 14)))
(assert (and (>= coord_x7 0) (<= coord_x7 14)))
(assert (and (>= coord_x8 0) (<= coord_x8 14)))
(assert (and (>= coord_x9 0) (<= coord_x9 14)))
(assert (and (>= coord_x10 0) (<= coord_x10 14)))
(assert (and (>= coord_x11 0) (<= coord_x11 14)))
(assert (and (>= coord_y0 0) (<= coord_y0 79)))
(assert (and (>= coord_y1 0) (<= coord_y1 79)))
(assert (and (>= coord_y2 0) (<= coord_y2 79)))
(assert (and (>= coord_y3 0) (<= coord_y3 79)))
(assert (and (>= coord_y4 0) (<= coord_y4 79)))
(assert (and (>= coord_y5 0) (<= coord_y5 79)))
(assert (and (>= coord_y6 0) (<= coord_y6 79)))
(assert (and (>= coord_y7 0) (<= coord_y7 79)))
(assert (and (>= coord_y8 0) (<= coord_y8 79)))
(assert (and (>= coord_y9 0) (<= coord_y9 79)))
(assert (and (>= coord_y10 0) (<= coord_y10 79)))
(assert (and (>= coord_y11 0) (<= coord_y11 79)))
(assert (ite rot0 (= w_real0 3) (= w_real0 3)))
(assert (ite rot1 (= w_real1 4) (= w_real1 3)))
(assert (ite rot2 (= w_real2 5) (= w_real2 3)))
(assert (ite rot3 (= w_real3 6) (= w_real3 3)))
(assert (ite rot4 (= w_real4 7) (= w_real4 3)))
(assert (ite rot5 (= w_real5 8) (= w_real5 3)))
(assert (ite rot6 (= w_real6 9) (= w_real6 3)))
(assert (ite rot7 (= w_real7 3) (= w_real7 4)))
(assert (ite rot8 (= w_real8 8) (= w_real8 4)))
(assert (ite rot9 (= w_real9 14) (= w_real9 4)))
(assert (ite rot10 (= w_real10 3) (= w_real10 7)))
(assert (ite rot11 (= w_real11 6) (= w_real11 7)))
(assert (ite rot0 (= h_real0 3) (= h_real0 3)))
(assert (ite rot1 (= h_real1 3) (= h_real1 4)))
(assert (ite rot2 (= h_real2 3) (= h_real2 5)))
(assert (ite rot3 (= h_real3 3) (= h_real3 6)))
(assert (ite rot4 (= h_real4 3) (= h_real4 7)))
(assert (ite rot5 (= h_real5 3) (= h_real5 8)))
(assert (ite rot6 (= h_real6 3) (= h_real6 9)))
(assert (ite rot7 (= h_real7 4) (= h_real7 3)))
(assert (ite rot8 (= h_real8 4) (= h_real8 8)))
(assert (ite rot9 (= h_real9 4) (= h_real9 14)))
(assert (ite rot10 (= h_real10 7) (= h_real10 3)))
(assert (ite rot11 (= h_real11 7) (= h_real11 6)))
(assert (and (>= l 17) (<= l 82)))
(assert (or (<= (+ coord_x0 w_real0) coord_x1) (<= (+ coord_y0 h_real0) coord_y1) (>= (- coord_x0 w_real1) coord_x1) (>= (- coord_y0 h_real1) coord_y1)))
(assert (or (<= (+ coord_x0 w_real0) coord_x2) (<= (+ coord_y0 h_real0) coord_y2) (>= (- coord_x0 w_real2) coord_x2) (>= (- coord_y0 h_real2) coord_y2)))
(assert (or (<= (+ coord_x0 w_real0) coord_x3) (<= (+ coord_y0 h_real0) coord_y3) (>= (- coord_x0 w_real3) coord_x3) (>= (- coord_y0 h_real3) coord_y3)))
(assert (or (<= (+ coord_x0 w_real0) coord_x4) (<= (+ coord_y0 h_real0) coord_y4) (>= (- coord_x0 w_real4) coord_x4) (>= (- coord_y0 h_real4) coord_y4)))
(assert (or (<= (+ coord_x0 w_real0) coord_x5) (<= (+ coord_y0 h_real0) coord_y5) (>= (- coord_x0 w_real5) coord_x5) (>= (- coord_y0 h_real5) coord_y5)))
(assert (or (<= (+ coord_x0 w_real0) coord_x6) (<= (+ coord_y0 h_real0) coord_y6) (>= (- coord_x0 w_real6) coord_x6) (>= (- coord_y0 h_real6) coord_y6)))
(assert (or (<= (+ coord_x0 w_real0) coord_x7) (<= (+ coord_y0 h_real0) coord_y7) (>= (- coord_x0 w_real7) coord_x7) (>= (- coord_y0 h_real7) coord_y7)))
(assert (or (<= (+ coord_x0 w_real0) coord_x8) (<= (+ coord_y0 h_real0) coord_y8) (>= (- coord_x0 w_real8) coord_x8) (>= (- coord_y0 h_real8) coord_y8)))
(assert (or (<= (+ coord_x0 w_real0) coord_x9) (<= (+ coord_y0 h_real0) coord_y9) (>= (- coord_x0 w_real9) coord_x9) (>= (- coord_y0 h_real9) coord_y9)))
(assert (or (<= (+ coord_x0 w_real0) coord_x10) (<= (+ coord_y0 h_real0) coord_y10) (>= (- coord_x0 w_real10) coord_x10) (>= (- coord_y0 h_real10) coord_y10)))
(assert (or (<= (+ coord_x0 w_real0) coord_x11) (<= (+ coord_y0 h_real0) coord_y11) (>= (- coord_x0 w_real11) coord_x11) (>= (- coord_y0 h_real11) coord_y11)))
(assert (or (<= (+ coord_x1 w_real1) coord_x2) (<= (+ coord_y1 h_real1) coord_y2) (>= (- coord_x1 w_real2) coord_x2) (>= (- coord_y1 h_real2) coord_y2)))
(assert (or (<= (+ coord_x1 w_real1) coord_x3) (<= (+ coord_y1 h_real1) coord_y3) (>= (- coord_x1 w_real3) coord_x3) (>= (- coord_y1 h_real3) coord_y3)))
(assert (or (<= (+ coord_x1 w_real1) coord_x4) (<= (+ coord_y1 h_real1) coord_y4) (>= (- coord_x1 w_real4) coord_x4) (>= (- coord_y1 h_real4) coord_y4)))
(assert (or (<= (+ coord_x1 w_real1) coord_x5) (<= (+ coord_y1 h_real1) coord_y5) (>= (- coord_x1 w_real5) coord_x5) (>= (- coord_y1 h_real5) coord_y5)))
(assert (or (<= (+ coord_x1 w_real1) coord_x6) (<= (+ coord_y1 h_real1) coord_y6) (>= (- coord_x1 w_real6) coord_x6) (>= (- coord_y1 h_real6) coord_y6)))
(assert (or (<= (+ coord_x1 w_real1) coord_x7) (<= (+ coord_y1 h_real1) coord_y7) (>= (- coord_x1 w_real7) coord_x7) (>= (- coord_y1 h_real7) coord_y7)))
(assert (or (<= (+ coord_x1 w_real1) coord_x8) (<= (+ coord_y1 h_real1) coord_y8) (>= (- coord_x1 w_real8) coord_x8) (>= (- coord_y1 h_real8) coord_y8)))
(assert (or (<= (+ coord_x1 w_real1) coord_x9) (<= (+ coord_y1 h_real1) coord_y9) (>= (- coord_x1 w_real9) coord_x9) (>= (- coord_y1 h_real9) coord_y9)))
(assert (or (<= (+ coord_x1 w_real1) coord_x10) (<= (+ coord_y1 h_real1) coord_y10) (>= (- coord_x1 w_real10) coord_x10) (>= (- coord_y1 h_real10) coord_y10)))
(assert (or (<= (+ coord_x1 w_real1) coord_x11) (<= (+ coord_y1 h_real1) coord_y11) (>= (- coord_x1 w_real11) coord_x11) (>= (- coord_y1 h_real11) coord_y11)))
(assert (or (<= (+ coord_x2 w_real2) coord_x3) (<= (+ coord_y2 h_real2) coord_y3) (>= (- coord_x2 w_real3) coord_x3) (>= (- coord_y2 h_real3) coord_y3)))
(assert (or (<= (+ coord_x2 w_real2) coord_x4) (<= (+ coord_y2 h_real2) coord_y4) (>= (- coord_x2 w_real4) coord_x4) (>= (- coord_y2 h_real4) coord_y4)))
(assert (or (<= (+ coord_x2 w_real2) coord_x5) (<= (+ coord_y2 h_real2) coord_y5) (>= (- coord_x2 w_real5) coord_x5) (>= (- coord_y2 h_real5) coord_y5)))
(assert (or (<= (+ coord_x2 w_real2) coord_x6) (<= (+ coord_y2 h_real2) coord_y6) (>= (- coord_x2 w_real6) coord_x6) (>= (- coord_y2 h_real6) coord_y6)))
(assert (or (<= (+ coord_x2 w_real2) coord_x7) (<= (+ coord_y2 h_real2) coord_y7) (>= (- coord_x2 w_real7) coord_x7) (>= (- coord_y2 h_real7) coord_y7)))
(assert (or (<= (+ coord_x2 w_real2) coord_x8) (<= (+ coord_y2 h_real2) coord_y8) (>= (- coord_x2 w_real8) coord_x8) (>= (- coord_y2 h_real8) coord_y8)))
(assert (or (<= (+ coord_x2 w_real2) coord_x9) (<= (+ coord_y2 h_real2) coord_y9) (>= (- coord_x2 w_real9) coord_x9) (>= (- coord_y2 h_real9) coord_y9)))
(assert (or (<= (+ coord_x2 w_real2) coord_x10) (<= (+ coord_y2 h_real2) coord_y10) (>= (- coord_x2 w_real10) coord_x10) (>= (- coord_y2 h_real10) coord_y10)))
(assert (or (<= (+ coord_x2 w_real2) coord_x11) (<= (+ coord_y2 h_real2) coord_y11) (>= (- coord_x2 w_real11) coord_x11) (>= (- coord_y2 h_real11) coord_y11)))
(assert (or (<= (+ coord_x3 w_real3) coord_x4) (<= (+ coord_y3 h_real3) coord_y4) (>= (- coord_x3 w_real4) coord_x4) (>= (- coord_y3 h_real4) coord_y4)))
(assert (or (<= (+ coord_x3 w_real3) coord_x5) (<= (+ coord_y3 h_real3) coord_y5) (>= (- coord_x3 w_real5) coord_x5) (>= (- coord_y3 h_real5) coord_y5)))
(assert (or (<= (+ coord_x3 w_real3) coord_x6) (<= (+ coord_y3 h_real3) coord_y6) (>= (- coord_x3 w_real6) coord_x6) (>= (- coord_y3 h_real6) coord_y6)))
(assert (or (<= (+ coord_x3 w_real3) coord_x7) (<= (+ coord_y3 h_real3) coord_y7) (>= (- coord_x3 w_real7) coord_x7) (>= (- coord_y3 h_real7) coord_y7)))
(assert (or (<= (+ coord_x3 w_real3) coord_x8) (<= (+ coord_y3 h_real3) coord_y8) (>= (- coord_x3 w_real8) coord_x8) (>= (- coord_y3 h_real8) coord_y8)))
(assert (or (<= (+ coord_x3 w_real3) coord_x9) (<= (+ coord_y3 h_real3) coord_y9) (>= (- coord_x3 w_real9) coord_x9) (>= (- coord_y3 h_real9) coord_y9)))
(assert (or (<= (+ coord_x3 w_real3) coord_x10) (<= (+ coord_y3 h_real3) coord_y10) (>= (- coord_x3 w_real10) coord_x10) (>= (- coord_y3 h_real10) coord_y10)))
(assert (or (<= (+ coord_x3 w_real3) coord_x11) (<= (+ coord_y3 h_real3) coord_y11) (>= (- coord_x3 w_real11) coord_x11) (>= (- coord_y3 h_real11) coord_y11)))
(assert (or (<= (+ coord_x4 w_real4) coord_x5) (<= (+ coord_y4 h_real4) coord_y5) (>= (- coord_x4 w_real5) coord_x5) (>= (- coord_y4 h_real5) coord_y5)))
(assert (or (<= (+ coord_x4 w_real4) coord_x6) (<= (+ coord_y4 h_real4) coord_y6) (>= (- coord_x4 w_real6) coord_x6) (>= (- coord_y4 h_real6) coord_y6)))
(assert (or (<= (+ coord_x4 w_real4) coord_x7) (<= (+ coord_y4 h_real4) coord_y7) (>= (- coord_x4 w_real7) coord_x7) (>= (- coord_y4 h_real7) coord_y7)))
(assert (or (<= (+ coord_x4 w_real4) coord_x8) (<= (+ coord_y4 h_real4) coord_y8) (>= (- coord_x4 w_real8) coord_x8) (>= (- coord_y4 h_real8) coord_y8)))
(assert (or (<= (+ coord_x4 w_real4) coord_x9) (<= (+ coord_y4 h_real4) coord_y9) (>= (- coord_x4 w_real9) coord_x9) (>= (- coord_y4 h_real9) coord_y9)))
(assert (or (<= (+ coord_x4 w_real4) coord_x10) (<= (+ coord_y4 h_real4) coord_y10) (>= (- coord_x4 w_real10) coord_x10) (>= (- coord_y4 h_real10) coord_y10)))
(assert (or (<= (+ coord_x4 w_real4) coord_x11) (<= (+ coord_y4 h_real4) coord_y11) (>= (- coord_x4 w_real11) coord_x11) (>= (- coord_y4 h_real11) coord_y11)))
(assert (or (<= (+ coord_x5 w_real5) coord_x6) (<= (+ coord_y5 h_real5) coord_y6) (>= (- coord_x5 w_real6) coord_x6) (>= (- coord_y5 h_real6) coord_y6)))
(assert (or (<= (+ coord_x5 w_real5) coord_x7) (<= (+ coord_y5 h_real5) coord_y7) (>= (- coord_x5 w_real7) coord_x7) (>= (- coord_y5 h_real7) coord_y7)))
(assert (or (<= (+ coord_x5 w_real5) coord_x8) (<= (+ coord_y5 h_real5) coord_y8) (>= (- coord_x5 w_real8) coord_x8) (>= (- coord_y5 h_real8) coord_y8)))
(assert (or (<= (+ coord_x5 w_real5) coord_x9) (<= (+ coord_y5 h_real5) coord_y9) (>= (- coord_x5 w_real9) coord_x9) (>= (- coord_y5 h_real9) coord_y9)))
(assert (or (<= (+ coord_x5 w_real5) coord_x10) (<= (+ coord_y5 h_real5) coord_y10) (>= (- coord_x5 w_real10) coord_x10) (>= (- coord_y5 h_real10) coord_y10)))
(assert (or (<= (+ coord_x5 w_real5) coord_x11) (<= (+ coord_y5 h_real5) coord_y11) (>= (- coord_x5 w_real11) coord_x11) (>= (- coord_y5 h_real11) coord_y11)))
(assert (or (<= (+ coord_x6 w_real6) coord_x7) (<= (+ coord_y6 h_real6) coord_y7) (>= (- coord_x6 w_real7) coord_x7) (>= (- coord_y6 h_real7) coord_y7)))
(assert (or (<= (+ coord_x6 w_real6) coord_x8) (<= (+ coord_y6 h_real6) coord_y8) (>= (- coord_x6 w_real8) coord_x8) (>= (- coord_y6 h_real8) coord_y8)))
(assert (or (<= (+ coord_x6 w_real6) coord_x9) (<= (+ coord_y6 h_real6) coord_y9) (>= (- coord_x6 w_real9) coord_x9) (>= (- coord_y6 h_real9) coord_y9)))
(assert (or (<= (+ coord_x6 w_real6) coord_x10) (<= (+ coord_y6 h_real6) coord_y10) (>= (- coord_x6 w_real10) coord_x10) (>= (- coord_y6 h_real10) coord_y10)))
(assert (or (<= (+ coord_x6 w_real6) coord_x11) (<= (+ coord_y6 h_real6) coord_y11) (>= (- coord_x6 w_real11) coord_x11) (>= (- coord_y6 h_real11) coord_y11)))
(assert (or (<= (+ coord_x7 w_real7) coord_x8) (<= (+ coord_y7 h_real7) coord_y8) (>= (- coord_x7 w_real8) coord_x8) (>= (- coord_y7 h_real8) coord_y8)))
(assert (or (<= (+ coord_x7 w_real7) coord_x9) (<= (+ coord_y7 h_real7) coord_y9) (>= (- coord_x7 w_real9) coord_x9) (>= (- coord_y7 h_real9) coord_y9)))
(assert (or (<= (+ coord_x7 w_real7) coord_x10) (<= (+ coord_y7 h_real7) coord_y10) (>= (- coord_x7 w_real10) coord_x10) (>= (- coord_y7 h_real10) coord_y10)))
(assert (or (<= (+ coord_x7 w_real7) coord_x11) (<= (+ coord_y7 h_real7) coord_y11) (>= (- coord_x7 w_real11) coord_x11) (>= (- coord_y7 h_real11) coord_y11)))
(assert (or (<= (+ coord_x8 w_real8) coord_x9) (<= (+ coord_y8 h_real8) coord_y9) (>= (- coord_x8 w_real9) coord_x9) (>= (- coord_y8 h_real9) coord_y9)))
(assert (or (<= (+ coord_x8 w_real8) coord_x10) (<= (+ coord_y8 h_real8) coord_y10) (>= (- coord_x8 w_real10) coord_x10) (>= (- coord_y8 h_real10) coord_y10)))
(assert (or (<= (+ coord_x8 w_real8) coord_x11) (<= (+ coord_y8 h_real8) coord_y11) (>= (- coord_x8 w_real11) coord_x11) (>= (- coord_y8 h_real11) coord_y11)))
(assert (or (<= (+ coord_x9 w_real9) coord_x10) (<= (+ coord_y9 h_real9) coord_y10) (>= (- coord_x9 w_real10) coord_x10) (>= (- coord_y9 h_real10) coord_y10)))
(assert (or (<= (+ coord_x9 w_real9) coord_x11) (<= (+ coord_y9 h_real9) coord_y11) (>= (- coord_x9 w_real11) coord_x11) (>= (- coord_y9 h_real11) coord_y11)))
(assert (or (<= (+ coord_x10 w_real10) coord_x11) (<= (+ coord_y10 h_real10) coord_y11) (>= (- coord_x10 w_real11) coord_x11) (>= (- coord_y10 h_real11) coord_y11)))
(assert (and (<= (+ coord_x0 w_real0) 17) (<= (+ coord_y0 h_real0) l)))
(assert (and (<= (+ coord_x1 w_real1) 17) (<= (+ coord_y1 h_real1) l)))
(assert (and (<= (+ coord_x2 w_real2) 17) (<= (+ coord_y2 h_real2) l)))
(assert (and (<= (+ coord_x3 w_real3) 17) (<= (+ coord_y3 h_real3) l)))
(assert (and (<= (+ coord_x4 w_real4) 17) (<= (+ coord_y4 h_real4) l)))
(assert (and (<= (+ coord_x5 w_real5) 17) (<= (+ coord_y5 h_real5) l)))
(assert (and (<= (+ coord_x6 w_real6) 17) (<= (+ coord_y6 h_real6) l)))
(assert (and (<= (+ coord_x7 w_real7) 17) (<= (+ coord_y7 h_real7) l)))
(assert (and (<= (+ coord_x8 w_real8) 17) (<= (+ coord_y8 h_real8) l)))
(assert (and (<= (+ coord_x9 w_real9) 17) (<= (+ coord_y9 h_real9) l)))
(assert (and (<= (+ coord_x10 w_real10) 17) (<= (+ coord_y10 h_real10) l)))
(assert (and (<= (+ coord_x11 w_real11) 17) (<= (+ coord_y11 h_real11) l)))
(assert (<= (+ (ite (and (<= coord_y0 3) (< 3 (+ coord_y0 h_real0))) w_real0 0) (ite (and (<= coord_y1 3) (< 3 (+ coord_y1 h_real1))) w_real1 0) (ite (and (<= coord_y2 3) (< 3 (+ coord_y2 h_real2))) w_real2 0) (ite (and (<= coord_y3 3) (< 3 (+ coord_y3 h_real3))) w_real3 0) (ite (and (<= coord_y4 3) (< 3 (+ coord_y4 h_real4))) w_real4 0) (ite (and (<= coord_y5 3) (< 3 (+ coord_y5 h_real5))) w_real5 0) (ite (and (<= coord_y6 3) (< 3 (+ coord_y6 h_real6))) w_real6 0) (ite (and (<= coord_y7 3) (< 3 (+ coord_y7 h_real7))) w_real7 0) (ite (and (<= coord_y8 3) (< 3 (+ coord_y8 h_real8))) w_real8 0) (ite (and (<= coord_y9 3) (< 3 (+ coord_y9 h_real9))) w_real9 0) (ite (and (<= coord_y10 3) (< 3 (+ coord_y10 h_real10))) w_real10 0) (ite (and (<= coord_y11 3) (< 3 (+ coord_y11 h_real11))) w_real11 0)) 17))
(assert (<= (+ (ite (and (<= coord_y0 3) (< 3 (+ coord_y0 h_real0))) w_real0 0) (ite (and (<= coord_y1 3) (< 3 (+ coord_y1 h_real1))) w_real1 0) (ite (and (<= coord_y2 3) (< 3 (+ coord_y2 h_real2))) w_real2 0) (ite (and (<= coord_y3 3) (< 3 (+ coord_y3 h_real3))) w_real3 0) (ite (and (<= coord_y4 3) (< 3 (+ coord_y4 h_real4))) w_real4 0) (ite (and (<= coord_y5 3) (< 3 (+ coord_y5 h_real5))) w_real5 0) (ite (and (<= coord_y6 3) (< 3 (+ coord_y6 h_real6))) w_real6 0) (ite (and (<= coord_y7 3) (< 3 (+ coord_y7 h_real7))) w_real7 0) (ite (and (<= coord_y8 3) (< 3 (+ coord_y8 h_real8))) w_real8 0) (ite (and (<= coord_y9 3) (< 3 (+ coord_y9 h_real9))) w_real9 0) (ite (and (<= coord_y10 3) (< 3 (+ coord_y10 h_real10))) w_real10 0) (ite (and (<= coord_y11 3) (< 3 (+ coord_y11 h_real11))) w_real11 0)) 17))
(assert (<= (+ (ite (and (<= coord_y0 3) (< 3 (+ coord_y0 h_real0))) w_real0 0) (ite (and (<= coord_y1 3) (< 3 (+ coord_y1 h_real1))) w_real1 0) (ite (and (<= coord_y2 3) (< 3 (+ coord_y2 h_real2))) w_real2 0) (ite (and (<= coord_y3 3) (< 3 (+ coord_y3 h_real3))) w_real3 0) (ite (and (<= coord_y4 3) (< 3 (+ coord_y4 h_real4))) w_real4 0) (ite (and (<= coord_y5 3) (< 3 (+ coord_y5 h_real5))) w_real5 0) (ite (and (<= coord_y6 3) (< 3 (+ coord_y6 h_real6))) w_real6 0) (ite (and (<= coord_y7 3) (< 3 (+ coord_y7 h_real7))) w_real7 0) (ite (and (<= coord_y8 3) (< 3 (+ coord_y8 h_real8))) w_real8 0) (ite (and (<= coord_y9 3) (< 3 (+ coord_y9 h_real9))) w_real9 0) (ite (and (<= coord_y10 3) (< 3 (+ coord_y10 h_real10))) w_real10 0) (ite (and (<= coord_y11 3) (< 3 (+ coord_y11 h_real11))) w_real11 0)) 17))
(assert (<= (+ (ite (and (<= coord_y0 3) (< 3 (+ coord_y0 h_real0))) w_real0 0) (ite (and (<= coord_y1 3) (< 3 (+ coord_y1 h_real1))) w_real1 0) (ite (and (<= coord_y2 3) (< 3 (+ coord_y2 h_real2))) w_real2 0) (ite (and (<= coord_y3 3) (< 3 (+ coord_y3 h_real3))) w_real3 0) (ite (and (<= coord_y4 3) (< 3 (+ coord_y4 h_real4))) w_real4 0) (ite (and (<= coord_y5 3) (< 3 (+ coord_y5 h_real5))) w_real5 0) (ite (and (<= coord_y6 3) (< 3 (+ coord_y6 h_real6))) w_real6 0) (ite (and (<= coord_y7 3) (< 3 (+ coord_y7 h_real7))) w_real7 0) (ite (and (<= coord_y8 3) (< 3 (+ coord_y8 h_real8))) w_real8 0) (ite (and (<= coord_y9 3) (< 3 (+ coord_y9 h_real9))) w_real9 0) (ite (and (<= coord_y10 3) (< 3 (+ coord_y10 h_real10))) w_real10 0) (ite (and (<= coord_y11 3) (< 3 (+ coord_y11 h_real11))) w_real11 0)) 17))
(assert (<= (+ (ite (and (<= coord_y0 3) (< 3 (+ coord_y0 h_real0))) w_real0 0) (ite (and (<= coord_y1 3) (< 3 (+ coord_y1 h_real1))) w_real1 0) (ite (and (<= coord_y2 3) (< 3 (+ coord_y2 h_real2))) w_real2 0) (ite (and (<= coord_y3 3) (< 3 (+ coord_y3 h_real3))) w_real3 0) (ite (and (<= coord_y4 3) (< 3 (+ coord_y4 h_real4))) w_real4 0) (ite (and (<= coord_y5 3) (< 3 (+ coord_y5 h_real5))) w_real5 0) (ite (and (<= coord_y6 3) (< 3 (+ coord_y6 h_real6))) w_real6 0) (ite (and (<= coord_y7 3) (< 3 (+ coord_y7 h_real7))) w_real7 0) (ite (and (<= coord_y8 3) (< 3 (+ coord_y8 h_real8))) w_real8 0) (ite (and (<= coord_y9 3) (< 3 (+ coord_y9 h_real9))) w_real9 0) (ite (and (<= coord_y10 3) (< 3 (+ coord_y10 h_real10))) w_real10 0) (ite (and (<= coord_y11 3) (< 3 (+ coord_y11 h_real11))) w_real11 0)) 17))
(assert (<= (+ (ite (and (<= coord_y0 3) (< 3 (+ coord_y0 h_real0))) w_real0 0) (ite (and (<= coord_y1 3) (< 3 (+ coord_y1 h_real1))) w_real1 0) (ite (and (<= coord_y2 3) (< 3 (+ coord_y2 h_real2))) w_real2 0) (ite (and (<= coord_y3 3) (< 3 (+ coord_y3 h_real3))) w_real3 0) (ite (and (<= coord_y4 3) (< 3 (+ coord_y4 h_real4))) w_real4 0) (ite (and (<= coord_y5 3) (< 3 (+ coord_y5 h_real5))) w_real5 0) (ite (and (<= coord_y6 3) (< 3 (+ coord_y6 h_real6))) w_real6 0) (ite (and (<= coord_y7 3) (< 3 (+ coord_y7 h_real7))) w_real7 0) (ite (and (<= coord_y8 3) (< 3 (+ coord_y8 h_real8))) w_real8 0) (ite (and (<= coord_y9 3) (< 3 (+ coord_y9 h_real9))) w_real9 0) (ite (and (<= coord_y10 3) (< 3 (+ coord_y10 h_real10))) w_real10 0) (ite (and (<= coord_y11 3) (< 3 (+ coord_y11 h_real11))) w_real11 0)) 17))
(assert (<= (+ (ite (and (<= coord_y0 3) (< 3 (+ coord_y0 h_real0))) w_real0 0) (ite (and (<= coord_y1 3) (< 3 (+ coord_y1 h_real1))) w_real1 0) (ite (and (<= coord_y2 3) (< 3 (+ coord_y2 h_real2))) w_real2 0) (ite (and (<= coord_y3 3) (< 3 (+ coord_y3 h_real3))) w_real3 0) (ite (and (<= coord_y4 3) (< 3 (+ coord_y4 h_real4))) w_real4 0) (ite (and (<= coord_y5 3) (< 3 (+ coord_y5 h_real5))) w_real5 0) (ite (and (<= coord_y6 3) (< 3 (+ coord_y6 h_real6))) w_real6 0) (ite (and (<= coord_y7 3) (< 3 (+ coord_y7 h_real7))) w_real7 0) (ite (and (<= coord_y8 3) (< 3 (+ coord_y8 h_real8))) w_real8 0) (ite (and (<= coord_y9 3) (< 3 (+ coord_y9 h_real9))) w_real9 0) (ite (and (<= coord_y10 3) (< 3 (+ coord_y10 h_real10))) w_real10 0) (ite (and (<= coord_y11 3) (< 3 (+ coord_y11 h_real11))) w_real11 0)) 17))
(assert (<= (+ (ite (and (<= coord_y0 4) (< 4 (+ coord_y0 h_real0))) w_real0 0) (ite (and (<= coord_y1 4) (< 4 (+ coord_y1 h_real1))) w_real1 0) (ite (and (<= coord_y2 4) (< 4 (+ coord_y2 h_real2))) w_real2 0) (ite (and (<= coord_y3 4) (< 4 (+ coord_y3 h_real3))) w_real3 0) (ite (and (<= coord_y4 4) (< 4 (+ coord_y4 h_real4))) w_real4 0) (ite (and (<= coord_y5 4) (< 4 (+ coord_y5 h_real5))) w_real5 0) (ite (and (<= coord_y6 4) (< 4 (+ coord_y6 h_real6))) w_real6 0) (ite (and (<= coord_y7 4) (< 4 (+ coord_y7 h_real7))) w_real7 0) (ite (and (<= coord_y8 4) (< 4 (+ coord_y8 h_real8))) w_real8 0) (ite (and (<= coord_y9 4) (< 4 (+ coord_y9 h_real9))) w_real9 0) (ite (and (<= coord_y10 4) (< 4 (+ coord_y10 h_real10))) w_real10 0) (ite (and (<= coord_y11 4) (< 4 (+ coord_y11 h_real11))) w_real11 0)) 17))
(assert (<= (+ (ite (and (<= coord_y0 4) (< 4 (+ coord_y0 h_real0))) w_real0 0) (ite (and (<= coord_y1 4) (< 4 (+ coord_y1 h_real1))) w_real1 0) (ite (and (<= coord_y2 4) (< 4 (+ coord_y2 h_real2))) w_real2 0) (ite (and (<= coord_y3 4) (< 4 (+ coord_y3 h_real3))) w_real3 0) (ite (and (<= coord_y4 4) (< 4 (+ coord_y4 h_real4))) w_real4 0) (ite (and (<= coord_y5 4) (< 4 (+ coord_y5 h_real5))) w_real5 0) (ite (and (<= coord_y6 4) (< 4 (+ coord_y6 h_real6))) w_real6 0) (ite (and (<= coord_y7 4) (< 4 (+ coord_y7 h_real7))) w_real7 0) (ite (and (<= coord_y8 4) (< 4 (+ coord_y8 h_real8))) w_real8 0) (ite (and (<= coord_y9 4) (< 4 (+ coord_y9 h_real9))) w_real9 0) (ite (and (<= coord_y10 4) (< 4 (+ coord_y10 h_real10))) w_real10 0) (ite (and (<= coord_y11 4) (< 4 (+ coord_y11 h_real11))) w_real11 0)) 17))
(assert (<= (+ (ite (and (<= coord_y0 4) (< 4 (+ coord_y0 h_real0))) w_real0 0) (ite (and (<= coord_y1 4) (< 4 (+ coord_y1 h_real1))) w_real1 0) (ite (and (<= coord_y2 4) (< 4 (+ coord_y2 h_real2))) w_real2 0) (ite (and (<= coord_y3 4) (< 4 (+ coord_y3 h_real3))) w_real3 0) (ite (and (<= coord_y4 4) (< 4 (+ coord_y4 h_real4))) w_real4 0) (ite (and (<= coord_y5 4) (< 4 (+ coord_y5 h_real5))) w_real5 0) (ite (and (<= coord_y6 4) (< 4 (+ coord_y6 h_real6))) w_real6 0) (ite (and (<= coord_y7 4) (< 4 (+ coord_y7 h_real7))) w_real7 0) (ite (and (<= coord_y8 4) (< 4 (+ coord_y8 h_real8))) w_real8 0) (ite (and (<= coord_y9 4) (< 4 (+ coord_y9 h_real9))) w_real9 0) (ite (and (<= coord_y10 4) (< 4 (+ coord_y10 h_real10))) w_real10 0) (ite (and (<= coord_y11 4) (< 4 (+ coord_y11 h_real11))) w_real11 0)) 17))
(assert (<= (+ (ite (and (<= coord_y0 7) (< 7 (+ coord_y0 h_real0))) w_real0 0) (ite (and (<= coord_y1 7) (< 7 (+ coord_y1 h_real1))) w_real1 0) (ite (and (<= coord_y2 7) (< 7 (+ coord_y2 h_real2))) w_real2 0) (ite (and (<= coord_y3 7) (< 7 (+ coord_y3 h_real3))) w_real3 0) (ite (and (<= coord_y4 7) (< 7 (+ coord_y4 h_real4))) w_real4 0) (ite (and (<= coord_y5 7) (< 7 (+ coord_y5 h_real5))) w_real5 0) (ite (and (<= coord_y6 7) (< 7 (+ coord_y6 h_real6))) w_real6 0) (ite (and (<= coord_y7 7) (< 7 (+ coord_y7 h_real7))) w_real7 0) (ite (and (<= coord_y8 7) (< 7 (+ coord_y8 h_real8))) w_real8 0) (ite (and (<= coord_y9 7) (< 7 (+ coord_y9 h_real9))) w_real9 0) (ite (and (<= coord_y10 7) (< 7 (+ coord_y10 h_real10))) w_real10 0) (ite (and (<= coord_y11 7) (< 7 (+ coord_y11 h_real11))) w_real11 0)) 17))
(assert (<= (+ (ite (and (<= coord_y0 7) (< 7 (+ coord_y0 h_real0))) w_real0 0) (ite (and (<= coord_y1 7) (< 7 (+ coord_y1 h_real1))) w_real1 0) (ite (and (<= coord_y2 7) (< 7 (+ coord_y2 h_real2))) w_real2 0) (ite (and (<= coord_y3 7) (< 7 (+ coord_y3 h_real3))) w_real3 0) (ite (and (<= coord_y4 7) (< 7 (+ coord_y4 h_real4))) w_real4 0) (ite (and (<= coord_y5 7) (< 7 (+ coord_y5 h_real5))) w_real5 0) (ite (and (<= coord_y6 7) (< 7 (+ coord_y6 h_real6))) w_real6 0) (ite (and (<= coord_y7 7) (< 7 (+ coord_y7 h_real7))) w_real7 0) (ite (and (<= coord_y8 7) (< 7 (+ coord_y8 h_real8))) w_real8 0) (ite (and (<= coord_y9 7) (< 7 (+ coord_y9 h_real9))) w_real9 0) (ite (and (<= coord_y10 7) (< 7 (+ coord_y10 h_real10))) w_real10 0) (ite (and (<= coord_y11 7) (< 7 (+ coord_y11 h_real11))) w_real11 0)) 17))
(assert (<= (+ (ite (and (<= coord_x0 3) (< 3 (+ coord_x0 w_real0))) h_real0 0) (ite (and (<= coord_x1 3) (< 3 (+ coord_x1 w_real1))) h_real1 0) (ite (and (<= coord_x2 3) (< 3 (+ coord_x2 w_real2))) h_real2 0) (ite (and (<= coord_x3 3) (< 3 (+ coord_x3 w_real3))) h_real3 0) (ite (and (<= coord_x4 3) (< 3 (+ coord_x4 w_real4))) h_real4 0) (ite (and (<= coord_x5 3) (< 3 (+ coord_x5 w_real5))) h_real5 0) (ite (and (<= coord_x6 3) (< 3 (+ coord_x6 w_real6))) h_real6 0) (ite (and (<= coord_x7 3) (< 3 (+ coord_x7 w_real7))) h_real7 0) (ite (and (<= coord_x8 3) (< 3 (+ coord_x8 w_real8))) h_real8 0) (ite (and (<= coord_x9 3) (< 3 (+ coord_x9 w_real9))) h_real9 0) (ite (and (<= coord_x10 3) (< 3 (+ coord_x10 w_real10))) h_real10 0) (ite (and (<= coord_x11 3) (< 3 (+ coord_x11 w_real11))) h_real11 0)) l))
(assert (<= (+ (ite (and (<= coord_x0 4) (< 4 (+ coord_x0 w_real0))) h_real0 0) (ite (and (<= coord_x1 4) (< 4 (+ coord_x1 w_real1))) h_real1 0) (ite (and (<= coord_x2 4) (< 4 (+ coord_x2 w_real2))) h_real2 0) (ite (and (<= coord_x3 4) (< 4 (+ coord_x3 w_real3))) h_real3 0) (ite (and (<= coord_x4 4) (< 4 (+ coord_x4 w_real4))) h_real4 0) (ite (and (<= coord_x5 4) (< 4 (+ coord_x5 w_real5))) h_real5 0) (ite (and (<= coord_x6 4) (< 4 (+ coord_x6 w_real6))) h_real6 0) (ite (and (<= coord_x7 4) (< 4 (+ coord_x7 w_real7))) h_real7 0) (ite (and (<= coord_x8 4) (< 4 (+ coord_x8 w_real8))) h_real8 0) (ite (and (<= coord_x9 4) (< 4 (+ coord_x9 w_real9))) h_real9 0) (ite (and (<= coord_x10 4) (< 4 (+ coord_x10 w_real10))) h_real10 0) (ite (and (<= coord_x11 4) (< 4 (+ coord_x11 w_real11))) h_real11 0)) l))
(assert (<= (+ (ite (and (<= coord_x0 5) (< 5 (+ coord_x0 w_real0))) h_real0 0) (ite (and (<= coord_x1 5) (< 5 (+ coord_x1 w_real1))) h_real1 0) (ite (and (<= coord_x2 5) (< 5 (+ coord_x2 w_real2))) h_real2 0) (ite (and (<= coord_x3 5) (< 5 (+ coord_x3 w_real3))) h_real3 0) (ite (and (<= coord_x4 5) (< 5 (+ coord_x4 w_real4))) h_real4 0) (ite (and (<= coord_x5 5) (< 5 (+ coord_x5 w_real5))) h_real5 0) (ite (and (<= coord_x6 5) (< 5 (+ coord_x6 w_real6))) h_real6 0) (ite (and (<= coord_x7 5) (< 5 (+ coord_x7 w_real7))) h_real7 0) (ite (and (<= coord_x8 5) (< 5 (+ coord_x8 w_real8))) h_real8 0) (ite (and (<= coord_x9 5) (< 5 (+ coord_x9 w_real9))) h_real9 0) (ite (and (<= coord_x10 5) (< 5 (+ coord_x10 w_real10))) h_real10 0) (ite (and (<= coord_x11 5) (< 5 (+ coord_x11 w_real11))) h_real11 0)) l))
(assert (<= (+ (ite (and (<= coord_x0 6) (< 6 (+ coord_x0 w_real0))) h_real0 0) (ite (and (<= coord_x1 6) (< 6 (+ coord_x1 w_real1))) h_real1 0) (ite (and (<= coord_x2 6) (< 6 (+ coord_x2 w_real2))) h_real2 0) (ite (and (<= coord_x3 6) (< 6 (+ coord_x3 w_real3))) h_real3 0) (ite (and (<= coord_x4 6) (< 6 (+ coord_x4 w_real4))) h_real4 0) (ite (and (<= coord_x5 6) (< 6 (+ coord_x5 w_real5))) h_real5 0) (ite (and (<= coord_x6 6) (< 6 (+ coord_x6 w_real6))) h_real6 0) (ite (and (<= coord_x7 6) (< 6 (+ coord_x7 w_real7))) h_real7 0) (ite (and (<= coord_x8 6) (< 6 (+ coord_x8 w_real8))) h_real8 0) (ite (and (<= coord_x9 6) (< 6 (+ coord_x9 w_real9))) h_real9 0) (ite (and (<= coord_x10 6) (< 6 (+ coord_x10 w_real10))) h_real10 0) (ite (and (<= coord_x11 6) (< 6 (+ coord_x11 w_real11))) h_real11 0)) l))
(assert (<= (+ (ite (and (<= coord_x0 7) (< 7 (+ coord_x0 w_real0))) h_real0 0) (ite (and (<= coord_x1 7) (< 7 (+ coord_x1 w_real1))) h_real1 0) (ite (and (<= coord_x2 7) (< 7 (+ coord_x2 w_real2))) h_real2 0) (ite (and (<= coord_x3 7) (< 7 (+ coord_x3 w_real3))) h_real3 0) (ite (and (<= coord_x4 7) (< 7 (+ coord_x4 w_real4))) h_real4 0) (ite (and (<= coord_x5 7) (< 7 (+ coord_x5 w_real5))) h_real5 0) (ite (and (<= coord_x6 7) (< 7 (+ coord_x6 w_real6))) h_real6 0) (ite (and (<= coord_x7 7) (< 7 (+ coord_x7 w_real7))) h_real7 0) (ite (and (<= coord_x8 7) (< 7 (+ coord_x8 w_real8))) h_real8 0) (ite (and (<= coord_x9 7) (< 7 (+ coord_x9 w_real9))) h_real9 0) (ite (and (<= coord_x10 7) (< 7 (+ coord_x10 w_real10))) h_real10 0) (ite (and (<= coord_x11 7) (< 7 (+ coord_x11 w_real11))) h_real11 0)) l))
(assert (<= (+ (ite (and (<= coord_x0 8) (< 8 (+ coord_x0 w_real0))) h_real0 0) (ite (and (<= coord_x1 8) (< 8 (+ coord_x1 w_real1))) h_real1 0) (ite (and (<= coord_x2 8) (< 8 (+ coord_x2 w_real2))) h_real2 0) (ite (and (<= coord_x3 8) (< 8 (+ coord_x3 w_real3))) h_real3 0) (ite (and (<= coord_x4 8) (< 8 (+ coord_x4 w_real4))) h_real4 0) (ite (and (<= coord_x5 8) (< 8 (+ coord_x5 w_real5))) h_real5 0) (ite (and (<= coord_x6 8) (< 8 (+ coord_x6 w_real6))) h_real6 0) (ite (and (<= coord_x7 8) (< 8 (+ coord_x7 w_real7))) h_real7 0) (ite (and (<= coord_x8 8) (< 8 (+ coord_x8 w_real8))) h_real8 0) (ite (and (<= coord_x9 8) (< 8 (+ coord_x9 w_real9))) h_real9 0) (ite (and (<= coord_x10 8) (< 8 (+ coord_x10 w_real10))) h_real10 0) (ite (and (<= coord_x11 8) (< 8 (+ coord_x11 w_real11))) h_real11 0)) l))
(assert (<= (+ (ite (and (<= coord_x0 9) (< 9 (+ coord_x0 w_real0))) h_real0 0) (ite (and (<= coord_x1 9) (< 9 (+ coord_x1 w_real1))) h_real1 0) (ite (and (<= coord_x2 9) (< 9 (+ coord_x2 w_real2))) h_real2 0) (ite (and (<= coord_x3 9) (< 9 (+ coord_x3 w_real3))) h_real3 0) (ite (and (<= coord_x4 9) (< 9 (+ coord_x4 w_real4))) h_real4 0) (ite (and (<= coord_x5 9) (< 9 (+ coord_x5 w_real5))) h_real5 0) (ite (and (<= coord_x6 9) (< 9 (+ coord_x6 w_real6))) h_real6 0) (ite (and (<= coord_x7 9) (< 9 (+ coord_x7 w_real7))) h_real7 0) (ite (and (<= coord_x8 9) (< 9 (+ coord_x8 w_real8))) h_real8 0) (ite (and (<= coord_x9 9) (< 9 (+ coord_x9 w_real9))) h_real9 0) (ite (and (<= coord_x10 9) (< 9 (+ coord_x10 w_real10))) h_real10 0) (ite (and (<= coord_x11 9) (< 9 (+ coord_x11 w_real11))) h_real11 0)) l))
(assert (<= (+ (ite (and (<= coord_x0 3) (< 3 (+ coord_x0 w_real0))) h_real0 0) (ite (and (<= coord_x1 3) (< 3 (+ coord_x1 w_real1))) h_real1 0) (ite (and (<= coord_x2 3) (< 3 (+ coord_x2 w_real2))) h_real2 0) (ite (and (<= coord_x3 3) (< 3 (+ coord_x3 w_real3))) h_real3 0) (ite (and (<= coord_x4 3) (< 3 (+ coord_x4 w_real4))) h_real4 0) (ite (and (<= coord_x5 3) (< 3 (+ coord_x5 w_real5))) h_real5 0) (ite (and (<= coord_x6 3) (< 3 (+ coord_x6 w_real6))) h_real6 0) (ite (and (<= coord_x7 3) (< 3 (+ coord_x7 w_real7))) h_real7 0) (ite (and (<= coord_x8 3) (< 3 (+ coord_x8 w_real8))) h_real8 0) (ite (and (<= coord_x9 3) (< 3 (+ coord_x9 w_real9))) h_real9 0) (ite (and (<= coord_x10 3) (< 3 (+ coord_x10 w_real10))) h_real10 0) (ite (and (<= coord_x11 3) (< 3 (+ coord_x11 w_real11))) h_real11 0)) l))
(assert (<= (+ (ite (and (<= coord_x0 8) (< 8 (+ coord_x0 w_real0))) h_real0 0) (ite (and (<= coord_x1 8) (< 8 (+ coord_x1 w_real1))) h_real1 0) (ite (and (<= coord_x2 8) (< 8 (+ coord_x2 w_real2))) h_real2 0) (ite (and (<= coord_x3 8) (< 8 (+ coord_x3 w_real3))) h_real3 0) (ite (and (<= coord_x4 8) (< 8 (+ coord_x4 w_real4))) h_real4 0) (ite (and (<= coord_x5 8) (< 8 (+ coord_x5 w_real5))) h_real5 0) (ite (and (<= coord_x6 8) (< 8 (+ coord_x6 w_real6))) h_real6 0) (ite (and (<= coord_x7 8) (< 8 (+ coord_x7 w_real7))) h_real7 0) (ite (and (<= coord_x8 8) (< 8 (+ coord_x8 w_real8))) h_real8 0) (ite (and (<= coord_x9 8) (< 8 (+ coord_x9 w_real9))) h_real9 0) (ite (and (<= coord_x10 8) (< 8 (+ coord_x10 w_real10))) h_real10 0) (ite (and (<= coord_x11 8) (< 8 (+ coord_x11 w_real11))) h_real11 0)) l))
(assert (<= (+ (ite (and (<= coord_x0 14) (< 14 (+ coord_x0 w_real0))) h_real0 0) (ite (and (<= coord_x1 14) (< 14 (+ coord_x1 w_real1))) h_real1 0) (ite (and (<= coord_x2 14) (< 14 (+ coord_x2 w_real2))) h_real2 0) (ite (and (<= coord_x3 14) (< 14 (+ coord_x3 w_real3))) h_real3 0) (ite (and (<= coord_x4 14) (< 14 (+ coord_x4 w_real4))) h_real4 0) (ite (and (<= coord_x5 14) (< 14 (+ coord_x5 w_real5))) h_real5 0) (ite (and (<= coord_x6 14) (< 14 (+ coord_x6 w_real6))) h_real6 0) (ite (and (<= coord_x7 14) (< 14 (+ coord_x7 w_real7))) h_real7 0) (ite (and (<= coord_x8 14) (< 14 (+ coord_x8 w_real8))) h_real8 0) (ite (and (<= coord_x9 14) (< 14 (+ coord_x9 w_real9))) h_real9 0) (ite (and (<= coord_x10 14) (< 14 (+ coord_x10 w_real10))) h_real10 0) (ite (and (<= coord_x11 14) (< 14 (+ coord_x11 w_real11))) h_real11 0)) l))
(assert (<= (+ (ite (and (<= coord_x0 3) (< 3 (+ coord_x0 w_real0))) h_real0 0) (ite (and (<= coord_x1 3) (< 3 (+ coord_x1 w_real1))) h_real1 0) (ite (and (<= coord_x2 3) (< 3 (+ coord_x2 w_real2))) h_real2 0) (ite (and (<= coord_x3 3) (< 3 (+ coord_x3 w_real3))) h_real3 0) (ite (and (<= coord_x4 3) (< 3 (+ coord_x4 w_real4))) h_real4 0) (ite (and (<= coord_x5 3) (< 3 (+ coord_x5 w_real5))) h_real5 0) (ite (and (<= coord_x6 3) (< 3 (+ coord_x6 w_real6))) h_real6 0) (ite (and (<= coord_x7 3) (< 3 (+ coord_x7 w_real7))) h_real7 0) (ite (and (<= coord_x8 3) (< 3 (+ coord_x8 w_real8))) h_real8 0) (ite (and (<= coord_x9 3) (< 3 (+ coord_x9 w_real9))) h_real9 0) (ite (and (<= coord_x10 3) (< 3 (+ coord_x10 w_real10))) h_real10 0) (ite (and (<= coord_x11 3) (< 3 (+ coord_x11 w_real11))) h_real11 0)) l))
(assert (<= (+ (ite (and (<= coord_x0 6) (< 6 (+ coord_x0 w_real0))) h_real0 0) (ite (and (<= coord_x1 6) (< 6 (+ coord_x1 w_real1))) h_real1 0) (ite (and (<= coord_x2 6) (< 6 (+ coord_x2 w_real2))) h_real2 0) (ite (and (<= coord_x3 6) (< 6 (+ coord_x3 w_real3))) h_real3 0) (ite (and (<= coord_x4 6) (< 6 (+ coord_x4 w_real4))) h_real4 0) (ite (and (<= coord_x5 6) (< 6 (+ coord_x5 w_real5))) h_real5 0) (ite (and (<= coord_x6 6) (< 6 (+ coord_x6 w_real6))) h_real6 0) (ite (and (<= coord_x7 6) (< 6 (+ coord_x7 w_real7))) h_real7 0) (ite (and (<= coord_x8 6) (< 6 (+ coord_x8 w_real8))) h_real8 0) (ite (and (<= coord_x9 6) (< 6 (+ coord_x9 w_real9))) h_real9 0) (ite (and (<= coord_x10 6) (< 6 (+ coord_x10 w_real10))) h_real10 0) (ite (and (<= coord_x11 6) (< 6 (+ coord_x11 w_real11))) h_real11 0)) l))
(assert (ite (and (= 3 3) (= 3 4)) (< coord_x0 coord_x1) true))
(assert (ite (and (= 3 3) (= 3 5)) (< coord_x0 coord_x2) true))
(assert (ite (and (= 3 3) (= 3 6)) (< coord_x0 coord_x3) true))
(assert (ite (and (= 3 3) (= 3 7)) (< coord_x0 coord_x4) true))
(assert (ite (and (= 3 3) (= 3 8)) (< coord_x0 coord_x5) true))
(assert (ite (and (= 3 3) (= 3 9)) (< coord_x0 coord_x6) true))
(assert (ite (and (= 3 4) (= 3 3)) (< coord_x0 coord_x7) true))
(assert (ite (and (= 3 4) (= 3 8)) (< coord_x0 coord_x8) true))
(assert (ite (and (= 3 4) (= 3 14)) (< coord_x0 coord_x9) true))
(assert (ite (and (= 3 7) (= 3 3)) (< coord_x0 coord_x10) true))
(assert (ite (and (= 3 7) (= 3 6)) (< coord_x0 coord_x11) true))
(assert (ite (and (= 3 3) (= 4 5)) (< coord_x1 coord_x2) true))
(assert (ite (and (= 3 3) (= 4 6)) (< coord_x1 coord_x3) true))
(assert (ite (and (= 3 3) (= 4 7)) (< coord_x1 coord_x4) true))
(assert (ite (and (= 3 3) (= 4 8)) (< coord_x1 coord_x5) true))
(assert (ite (and (= 3 3) (= 4 9)) (< coord_x1 coord_x6) true))
(assert (ite (and (= 3 4) (= 4 3)) (< coord_x1 coord_x7) true))
(assert (ite (and (= 3 4) (= 4 8)) (< coord_x1 coord_x8) true))
(assert (ite (and (= 3 4) (= 4 14)) (< coord_x1 coord_x9) true))
(assert (ite (and (= 3 7) (= 4 3)) (< coord_x1 coord_x10) true))
(assert (ite (and (= 3 7) (= 4 6)) (< coord_x1 coord_x11) true))
(assert (ite (and (= 3 3) (= 5 6)) (< coord_x2 coord_x3) true))
(assert (ite (and (= 3 3) (= 5 7)) (< coord_x2 coord_x4) true))
(assert (ite (and (= 3 3) (= 5 8)) (< coord_x2 coord_x5) true))
(assert (ite (and (= 3 3) (= 5 9)) (< coord_x2 coord_x6) true))
(assert (ite (and (= 3 4) (= 5 3)) (< coord_x2 coord_x7) true))
(assert (ite (and (= 3 4) (= 5 8)) (< coord_x2 coord_x8) true))
(assert (ite (and (= 3 4) (= 5 14)) (< coord_x2 coord_x9) true))
(assert (ite (and (= 3 7) (= 5 3)) (< coord_x2 coord_x10) true))
(assert (ite (and (= 3 7) (= 5 6)) (< coord_x2 coord_x11) true))
(assert (ite (and (= 3 3) (= 6 7)) (< coord_x3 coord_x4) true))
(assert (ite (and (= 3 3) (= 6 8)) (< coord_x3 coord_x5) true))
(assert (ite (and (= 3 3) (= 6 9)) (< coord_x3 coord_x6) true))
(assert (ite (and (= 3 4) (= 6 3)) (< coord_x3 coord_x7) true))
(assert (ite (and (= 3 4) (= 6 8)) (< coord_x3 coord_x8) true))
(assert (ite (and (= 3 4) (= 6 14)) (< coord_x3 coord_x9) true))
(assert (ite (and (= 3 7) (= 6 3)) (< coord_x3 coord_x10) true))
(assert (ite (and (= 3 7) (= 6 6)) (< coord_x3 coord_x11) true))
(assert (ite (and (= 3 3) (= 7 8)) (< coord_x4 coord_x5) true))
(assert (ite (and (= 3 3) (= 7 9)) (< coord_x4 coord_x6) true))
(assert (ite (and (= 3 4) (= 7 3)) (< coord_x4 coord_x7) true))
(assert (ite (and (= 3 4) (= 7 8)) (< coord_x4 coord_x8) true))
(assert (ite (and (= 3 4) (= 7 14)) (< coord_x4 coord_x9) true))
(assert (ite (and (= 3 7) (= 7 3)) (< coord_x4 coord_x10) true))
(assert (ite (and (= 3 7) (= 7 6)) (< coord_x4 coord_x11) true))
(assert (ite (and (= 3 3) (= 8 9)) (< coord_x5 coord_x6) true))
(assert (ite (and (= 3 4) (= 8 3)) (< coord_x5 coord_x7) true))
(assert (ite (and (= 3 4) (= 8 8)) (< coord_x5 coord_x8) true))
(assert (ite (and (= 3 4) (= 8 14)) (< coord_x5 coord_x9) true))
(assert (ite (and (= 3 7) (= 8 3)) (< coord_x5 coord_x10) true))
(assert (ite (and (= 3 7) (= 8 6)) (< coord_x5 coord_x11) true))
(assert (ite (and (= 3 4) (= 9 3)) (< coord_x6 coord_x7) true))
(assert (ite (and (= 3 4) (= 9 8)) (< coord_x6 coord_x8) true))
(assert (ite (and (= 3 4) (= 9 14)) (< coord_x6 coord_x9) true))
(assert (ite (and (= 3 7) (= 9 3)) (< coord_x6 coord_x10) true))
(assert (ite (and (= 3 7) (= 9 6)) (< coord_x6 coord_x11) true))
(assert (ite (and (= 4 4) (= 3 8)) (< coord_x7 coord_x8) true))
(assert (ite (and (= 4 4) (= 3 14)) (< coord_x7 coord_x9) true))
(assert (ite (and (= 4 7) (= 3 3)) (< coord_x7 coord_x10) true))
(assert (ite (and (= 4 7) (= 3 6)) (< coord_x7 coord_x11) true))
(assert (ite (and (= 4 4) (= 8 14)) (< coord_x8 coord_x9) true))
(assert (ite (and (= 4 7) (= 8 3)) (< coord_x8 coord_x10) true))
(assert (ite (and (= 4 7) (= 8 6)) (< coord_x8 coord_x11) true))
(assert (ite (and (= 4 7) (= 14 3)) (< coord_x9 coord_x10) true))
(assert (ite (and (= 4 7) (= 14 6)) (< coord_x9 coord_x11) true))
(assert (ite (and (= 7 7) (= 3 6)) (< coord_x10 coord_x11) true))
(assert (= rot0 false))
(assert (= coord_x9 0))
(assert (= coord_y9 0))
(check-sat)
(get-value (coord_x0))
(get-value (coord_y0))
(get-value (rot0))
(get-value (coord_x1))
(get-value (coord_y1))
(get-value (rot1))
(get-value (coord_x2))
(get-value (coord_y2))
(get-value (rot2))
(get-value (coord_x3))
(get-value (coord_y3))
(get-value (rot3))
(get-value (coord_x4))
(get-value (coord_y4))
(get-value (rot4))
(get-value (coord_x5))
(get-value (coord_y5))
(get-value (rot5))
(get-value (coord_x6))
(get-value (coord_y6))
(get-value (rot6))
(get-value (coord_x7))
(get-value (coord_y7))
(get-value (rot7))
(get-value (coord_x8))
(get-value (coord_y8))
(get-value (rot8))
(get-value (coord_x9))
(get-value (coord_y9))
(get-value (rot9))
(get-value (coord_x10))
(get-value (coord_y10))
(get-value (rot10))
(get-value (coord_x11))
(get-value (coord_y11))
(get-value (rot11))
(get-value (l))
